Problem:    
Rows:       248
Columns:    89 (72 integer, 72 binary)
Non-zeros:  820
Status:     INTEGER OPTIMAL
Objective:  value = 103.33258 (MINimum)

   No.   Row name        Activity     Lower bound   Upper bound
------ ------------    ------------- ------------- -------------
     1 r.5                   103.333             0               
     2 r.6                   9.81709      -1984.22               
     3 r.7                   2103.33             0               
     4 r.8                  -1978.07      -1988.24               
     5 r.9                   103.333             0               
     6 r.10                 -1925.26      -1982.73               
     7 r.11                  2103.33             0               
     8 r.12                 -1953.63      -1987.79               
     9 r.13                  2103.33             0               
    10 r.14                 -1945.03      -1972.38               
    11 r.15                  103.333             0               
    12 r.16                 -1897.28      -1981.26               
    13 r.17                  2103.33             0               
    14 r.18                 -1975.16      -1984.97               
    15 r.19                  103.333             0               
    16 r.20                 -1901.71      -1985.69               
    17 r.21                  103.333             0               
    18 r.22                 -5.96035      -1986.27               
    19 r.23                  2103.33             0               
    20 r.24                 -1965.84      -1987.77               
    21 r.25                  103.333             0               
    22 r.26                 -1862.93      -1966.27               
    23 r.27                  2103.33             0               
    24 r.28                 -1916.02      -1980.69               
    25 r.29                  2103.33             0               
    26 r.30                 -1896.67      -1966.89               
    27 r.31                  103.333             0               
    28 r.32                  103.333      -1980.64               
    29 r.33                  2103.33             0               
    30 r.34                 -1998.78      -1998.78               
    31 r.35                  103.333             0               
    32 r.36                 -1991.94      -1991.94               
    33 r.37                        1             1             = 
    34 r.38                        1             1             = 
    35 r.39                        1             1             = 
    36 r.40                        1             1             = 
    37 r.41                        1             1             = 
    38 r.42                        1             1             = 
    39 r.43                        1             1             = 
    40 r.44                        1             1             = 
    41 r.45                  64.9233       17.2708               
    42 r.46                 -62.4233      -1984.22               
    43 r.47                  24.4413       12.2143               
    44 r.48                 -29.4413      -1988.24               
    45 r.49                  45.1524        27.625               
    46 r.50                 -45.1524      -1984.22               
    47 r.51                  80.7829       18.7409               
    48 r.52                 -80.7829      -1988.24               
    49 r.53                  15.0274       15.0274               
    50 r.54                 -15.0274      -1984.22               
    51 r.55                  76.3562       14.3142               
    52 r.56                 -76.3562      -1988.24               
    53 r.57                  1984.22       13.7274               
    54 r.58                 -1984.22      -1984.22               
    55 r.59                   12.227        12.227               
    56 r.60                  -12.227      -1988.24               
    57 r.61                 -1872.75      -1951.01               
    58 r.62                 -1925.84      -1950.18               
    59 r.63                 -1884.87      -1951.01               
    60 r.64                 -1937.96      -1950.18               
    61 r.65                  93.5155       33.1095               
    62 r.66                 -93.5155      -1984.22               
    63 r.67                  81.3993       19.3573               
    64 r.68                 -81.3993      -1988.24               
    65 r.69                  8.60142      -1981.72               
    66 r.70                 -1979.28      -1983.24               
    67 r.71                  2001.75      -1981.72               
    68 r.72                  13.8693      -1983.24               
    69 r.73                  1937.58       15.7774               
    70 r.74                 -1937.58      -1982.73               
    71 r.75                  1970.56       11.7639               
    72 r.76                 -1970.56      -1987.79               
    73 r.77                  1982.73        27.625               
    74 r.78                 -1982.73      -1982.73               
    75 r.79                  51.3416       18.7409               
    76 r.80                 -51.3416      -1987.79               
    77 r.81                   1952.6       15.0274               
    78 r.82                  -1952.6      -1982.73               
    79 r.83                  46.9149       14.3142               
    80 r.84                 -46.9149      -1987.79               
    81 r.85                   1921.8       13.7274               
    82 r.86                  -1921.8      -1982.73               
    83 r.87                  1982.79        12.227               
    84 r.88                 -1982.79      -1987.79               
    85 r.89                  64.8258       33.7336               
    86 r.90                 -64.8258      -1982.73               
    87 r.91                  32.6007       19.3079               
    88 r.92                 -32.6007      -1987.79               
    89 r.93                  31.0922      -1951.64               
    90 r.94                  2031.09      -1950.14               
    91 r.95                 -1948.04      -1951.64               
    92 r.96                   51.958      -1950.14               
    93 r.97                 -1928.98      -1980.23               
    94 r.98                 -1949.84      -1982.79               
    95 r.99                  64.1763      -1980.23               
    96 r.100                 43.3106      -1982.79               
    97 r.101                 1954.85       15.7774               
    98 r.102                -1954.85      -1972.38               
    99 r.103                 1919.22       11.7639               
   100 r.104                -1919.22      -1981.26               
   101 r.105                 19.7708       17.2708               
   102 r.106                -17.2708      -1972.38               
   103 r.107                 1943.66       12.2143               
   104 r.108                -1948.66      -1981.26               
   105 r.109                -1969.88      -1969.88               
   106 r.110                -1922.13      -1976.26               
   107 r.111                  -43.32      -1969.88               
   108 r.112                 4.42669      -1976.26               
   109 r.113                 1939.07       13.7274               
   110 r.114                -1939.07      -1972.38               
   111 r.115                 1931.44        12.227               
   112 r.116                -1931.44      -1981.26               
   113 r.117                 82.0966       33.7336               
   114 r.118                -82.0966      -1972.38               
   115 r.119                 1981.26       19.3079               
   116 r.120                -1981.26      -1981.26               
   117 r.121                -1951.64      -1951.64               
   118 r.122                 48.3631      -1950.14               
   119 r.123                0.616411      -1951.64               
   120 r.124                 2000.62      -1950.14               
   121 r.125                -1946.25      -1969.88               
   122 r.126                 -1898.5      -1976.26               
   123 r.127                 46.9055      -1969.88               
   124 r.128                 94.6522      -1976.26               
   125 r.129                 1984.97       15.7774               
   126 r.130                -1984.97      -1984.97               
   127 r.131                 1923.64       11.7639               
   128 r.132                -1923.64      -1985.69               
   129 r.133                 49.8958       17.2708               
   130 r.134                -47.3958      -1984.97               
   131 r.135                 1948.09       12.2143               
   132 r.136                -1953.09      -1985.69               
   133 r.137                -1969.88      -1969.88               
   134 r.138                -1922.13      -1976.26               
   135 r.139                  -43.32      -1969.88               
   136 r.140                 4.42669      -1976.26               
   137 r.141                  1969.2       13.7274               
   138 r.142                 -1969.2      -1984.97               
   139 r.143                 1935.87        12.227               
   140 r.144                -1935.87      -1985.69               
   141 r.145                 112.222       33.7336               
   142 r.146                -112.222      -1984.97               
   143 r.147                 1985.69       19.3079               
   144 r.148                -1985.69      -1985.69               
   145 r.149                -1921.51      -1951.64               
   146 r.150                 78.4881      -1950.14               
   147 r.151                  5.0431      -1951.64               
   148 r.152                 2005.04      -1950.14               
   149 r.153                -1976.37      -1976.37               
   150 r.154                -1902.93      -1968.48               
   151 r.155                 16.7805      -1976.37               
   152 r.156                 90.2255      -1968.48               
   153 r.157                 15.7774       15.7774               
   154 r.158                -15.7774      -1986.27               
   155 r.159                 1987.77       11.7639               
   156 r.160                -1987.77      -1987.77               
   157 r.161                 80.7007       17.2708               
   158 r.162                -78.2007      -1986.27               
   159 r.163                 12.2143       12.2143               
   160 r.164                -17.2143      -1987.77               
   161 r.165                 60.9299        27.625               
   162 r.166                -60.9299      -1986.27               
   163 r.167                 68.5559       18.7409               
   164 r.168                -68.5559      -1987.77               
   165 r.169                 30.8049       15.0274               
   166 r.170                -30.8049      -1986.27               
   167 r.171                 64.1292       14.3142               
   168 r.172                -64.1292      -1987.77               
   169 r.173                -1856.97      -1951.01               
   170 r.174                -1910.06      -1950.18               
   171 r.175                -1897.09      -1951.01               
   172 r.176                -1950.18      -1950.18               
   173 r.177                -1890.71      -1951.64               
   174 r.178                 109.293      -1950.14               
   175 r.179                -1930.83      -1951.64               
   176 r.180                 69.1723      -1950.14               
   177 r.181                -7.17602      -1981.27               
   178 r.182                -1967.06      -1977.77               
   179 r.183                 1985.98      -1981.27               
   180 r.184                 26.0963      -1977.77               
   181 r.185                -1872.75      -1951.01               
   182 r.186                -1925.84      -1950.18               
   183 r.187                -1884.87      -1951.01               
   184 r.188                -1937.96      -1950.18               
   185 r.189                 1937.67       17.2708               
   186 r.190                -1935.17      -1966.27               
   187 r.191                  1962.4       12.2143               
   188 r.192                 -1967.4      -1980.69               
   189 r.193                  1917.9        27.625               
   190 r.194                 -1917.9      -1966.27               
   191 r.195                 18.7409       18.7409               
   192 r.196                -18.7409      -1980.69               
   193 r.197                 1887.78       15.0274               
   194 r.198                -1887.78      -1966.27               
   195 r.199                 14.3142       14.3142               
   196 r.200                -14.3142      -1980.69               
   197 r.201                -1856.97      -1951.01               
   198 r.202                -1910.06      -1950.18               
   199 r.203                -1897.09      -1951.01               
   200 r.204                -1950.18      -1950.18               
   201 r.205                 1966.27       33.1095               
   202 r.206                -1966.27      -1966.27               
   203 r.207                 19.3573       19.3573               
   204 r.208                -19.3573      -1980.69               
   205 r.209                 1906.48       15.7774               
   206 r.210                -1906.48      -1966.89               
   207 r.211                  1918.6       11.7639               
   208 r.212                 -1918.6      -1980.64               
   209 r.213                 31.0922      -1951.64               
   210 r.214                 2031.09      -1950.14               
   211 r.215                -1948.04      -1951.64               
   212 r.216                  51.958      -1950.14               
   213 r.217                -1951.64      -1951.64               
   214 r.218                 48.3631      -1950.14               
   215 r.219                0.616411      -1951.64               
   216 r.220                 2000.62      -1950.14               
   217 r.221                -1921.51      -1951.64               
   218 r.222                 78.4881      -1950.14               
   219 r.223                  5.0431      -1951.64               
   220 r.224                 2005.04      -1950.14               
   221 r.225                -1890.71      -1951.64               
   222 r.226                 109.293      -1950.14               
   223 r.227                -1930.83      -1951.64               
   224 r.228                 69.1723      -1950.14               
   225 r.229                 33.7336       33.7336               
   226 r.230                -33.7336      -1966.89               
   227 r.231                 1980.64       19.3079               
   228 r.232                -1980.64      -1980.64               
   229 r.233                 8.60142      -1981.72               
   230 r.234                -1979.28      -1983.24               
   231 r.235                 2001.75      -1981.72               
   232 r.236                 13.8693      -1983.24               
   233 r.237                -1928.98      -1980.23               
   234 r.238                -1949.84      -1982.79               
   235 r.239                 64.1763      -1980.23               
   236 r.240                 43.3106      -1982.79               
   237 r.241                -1946.25      -1969.88               
   238 r.242                 -1898.5      -1976.26               
   239 r.243                 46.9055      -1969.88               
   240 r.244                 94.6522      -1976.26               
   241 r.245                -1976.37      -1976.37               
   242 r.246                -1902.93      -1968.48               
   243 r.247                 16.7805      -1976.37               
   244 r.248                 90.2255      -1968.48               
   245 r.249                -7.17602      -1981.27               
   246 r.250                -1967.06      -1977.77               
   247 r.251                 1985.98      -1981.27               
   248 r.252                 26.0963      -1977.77               

   No. Column name       Activity     Lower bound   Upper bound
------ ------------    ------------- ------------- -------------
     1 tt                    103.333             0               
     2 s_1_1        *              0             0             1 
     3 t_1_1                 93.5155             0               
     4 s_1_6        *              0             0             1 
     5 s_2_1        *              1             0             1 
     6 t_2_1                 81.3993             0               
     7 s_2_6        *              1             0             1 
     8 s_1_2        *              0             0             1 
     9 t_1_2                 2031.09             0               
    10 s_1_7        *              1             0             1 
    11 s_2_2        *              1             0             1 
    12 t_2_2                  51.958             0               
    13 s_2_7        *              0             0             1 
    14 s_1_3        *              1             0             1 
    15 t_1_3                 48.3631             0               
    16 s_2_3        *              0             0             1 
    17 t_2_3                 2000.62             0               
    18 s_1_4        *              1             0             1 
    19 t_1_4                 78.4881             0               
    20 s_2_4        *              0             0             1 
    21 t_2_4                 2005.04             0               
    22 s_1_5        *              0             0             1 
    23 t_1_5                 109.293             0               
    24 s_2_5        *              1             0             1 
    25 t_2_5                 69.1723             0               
    26 t_1_6                 1966.27             0               
    27 t_2_6                 19.3573             0               
    28 t_1_7                       0             0               
    29 t_2_7                       0             0               
    30 s_1_8        *              1             0             1 
    31 t_1_8                 102.117             0               
    32 s_2_8        *              0             0             1 
    33 t_2_8                 2095.27             0               
    34 u_1_1_2      *              1             0             1 
    35 u_2_1_2      *              0             0             1 
    36 u_1_1_3      *              0             0             1 
    37 u_2_1_3      *              1             0             1 
    38 u_1_1_4      *              0             0             1 
    39 u_2_1_4      *              1             0             1 
    40 u_1_1_5      *              1             0             1 
    41 u_2_1_5      *              0             0             1 
    42 u_1_1_7      *              0             0             1 
    43 u_2_1_7      *              0             0             1 
    44 u_1_2_1      *              0             0             1 
    45 u_2_2_1      *              1             0             1 
    46 u_1_2_3      *              0             0             1 
    47 u_2_2_3      *              1             0             1 
    48 u_1_2_4      *              0             0             1 
    49 u_2_2_4      *              1             0             1 
    50 u_1_2_5      *              0             0             1 
    51 u_2_2_5      *              1             0             1 
    52 u_1_2_6      *              0             0             1 
    53 u_2_2_6      *              0             0             1 
    54 u_1_3_1      *              1             0             1 
    55 u_2_3_1      *              0             0             1 
    56 u_1_3_2      *              1             0             1 
    57 u_2_3_2      *              0             0             1 
    58 u_1_3_5      *              1             0             1 
    59 u_2_3_5      *              0             0             1 
    60 u_1_3_6      *              1             0             1 
    61 u_2_3_6      *              0             0             1 
    62 u_1_4_1      *              1             0             1 
    63 u_2_4_1      *              0             0             1 
    64 u_1_4_2      *              1             0             1 
    65 u_2_4_2      *              0             0             1 
    66 u_1_4_5      *              1             0             1 
    67 u_2_4_5      *              0             0             1 
    68 u_1_4_6      *              1             0             1 
    69 u_2_4_6      *              0             0             1 
    70 u_1_5_1      *              0             0             1 
    71 u_2_5_1      *              1             0             1 
    72 u_1_5_2      *              1             0             1 
    73 u_2_5_2      *              0             0             1 
    74 u_1_5_3      *              0             0             1 
    75 u_2_5_3      *              1             0             1 
    76 u_1_5_4      *              0             0             1 
    77 u_2_5_4      *              1             0             1 
    78 u_1_6_2      *              1             0             1 
    79 u_2_6_2      *              1             0             1 
    80 u_1_6_3      *              0             0             1 
    81 u_2_6_3      *              1             0             1 
    82 u_1_6_4      *              0             0             1 
    83 u_2_6_4      *              1             0             1 
    84 u_1_6_7      *              0             0             1 
    85 u_2_6_7      *              0             0             1 
    86 u_1_7_1      *              1             0             1 
    87 u_2_7_1      *              1             0             1 
    88 u_1_7_6      *              1             0             1 
    89 u_2_7_6      *              1             0             1 

Integer feasibility conditions:

KKT.PE: max.abs.err = 1.42e-14 on row 49
        max.rel.err = 6.92e-17 on row 49
        High quality

KKT.PB: max.abs.err = 2.79e-13 on row 49
        max.rel.err = 1.74e-14 on row 49
        High quality

End of output
